1801
1   1   0    58   0 6 16 24 11 19 27 35 26 34 17 25 33 36 12 0
1   2   0    48   0 13 21 3 18 10 2 0
1   3   0    36   0 7 8 5 0
1   4   0    0    0 0
1   5   0    32   0 4 9 1 0
2   1   0    49   0 71 79 80 72 64 56 77 69 61 48 47 0
2   2   0    59   0 52 60 57 73 38 22 15 29 37 32 40 75 67 53 45 0
2   3   0    42   0 49 65 30 20 28 14 23 31 39 74 50 0
2   4   0    51   0 55 63 78 70 62 54 46 44 0
2   5   0    57   0 41 68 76 58 66 59 51 43 42 0